c weights 1 0 0.1 0.9 0.7 0.30000000000000004 0.01 0.99 1 0.0 1 1 0.9 0.09999999999999998 1 1 0.1 0.9 0.19 0.81 1 1 1 1 1 1 0.85 0.15000000000000002 1 1 1 1 0.3 0.7 1 1 1 1 0.8 0.19999999999999996 1 1 1 1 1 1 0.8 0.19999999999999996 1 1 1 0 0.8 0.19999999999999996 1 1 0.1 0.9 1 1 1 0 
p cnf 31 61
6 -3 -4 0
-6 3 0
-6 4 0
8 -6 -7 0
-8 6 0
-8 7 0
11 -10 3 0
-11 10 0
-11 -3 0
12 -9 -11 0
-12 9 0
-12 11 0
13 -10 -3 0
-13 10 0
-13 3 0
15 -13 -14 0
-15 13 0
-15 14 0
16 -4 3 0
-16 4 0
-16 -3 0
18 -16 -17 0
-18 16 0
-18 17 0
19 -1 -3 0
-19 1 0
-19 3 0
21 -19 -20 0
-21 19 0
-21 20 0
-22 8 18 12 21 15 0
22 -8 0
22 -18 0
22 -12 0
22 -21 0
22 -15 0
23 -2 22 0
-23 2 0
-23 -22 0
25 -24 -22 0
-25 24 0
-25 22 0
-26 25 23 0
26 -25 0
26 -23 0
28 -27 -22 0
-28 27 0
-28 22 0
30 22 -29 0
-30 -22 0
-30 29 0
-31 28 30 0
31 -28 0
31 -30 0
-1 -10 0
-1 -4 0
-1 -5 0
-10 -4 0
-10 -5 0
-4 -5 0
1 10 4 5 0